n_res = 4;
rc = [ 0, 0, 0, 0 ];
n_tasks = 30;
d = [ 1, 9, 5, 2, 7, 9, 6, 7, 10, 6, 5, 10, 5, 6, 10, 2, 5, 10, 9, 3, 1, 7, 2, 2, 9, 8, 1, 1, 1, 3 ];
rr = [| 0, 0, 0, 0, 0, 0, 0, 0, 0, 0, 0, 0, 0, 0, 0, 0, 0, 0, 0, 0, 0, 0, 0, 0, 0, 0, 0, 0, 0, 0
      | 0, 0, 0, 0, 0, 0, 0, 0, 0, 0, 0, 0, 0, 0, 0, 0, 0, 0, 0, 0, 0, 0, 0, 0, 0, 0, 0, 0, 0, 0
      | 0, 0, 0, 0, 0, 0, 0, 0, 0, 0, 0, 0, 0, 0, 0, 0, 0, 0, 0, 0, 0, 0, 0, 0, 0, 0, 0, 0, 0, 0
      | 0, 0, 0, 0, 0, 0, 0, 0, 0, 0, 0, 0, 0, 0, 0, 0, 0, 0, 0, 0, 0, 0, 0, 0, 0, 0, 0, 0, 0, 0 |];
suc = [ { 5, 6, 8 },
       { 9, 12, 18 },
       { 4, 10, 14 },
       { 7, 19, 30 },
       { 11, 13, 15 },
       { 21 },
       { 15, 20 },
       { 16, 17, 22 },
       { 19, 22, 23 },
       { 16 },
       { 14, 25 },
       { 13, 19, 23 },
       { 14, 17 },
       { 16, 24, 29 },
       { 21 },
       { 27 },
       { 26 },
       { 20, 24 },
       { 26, 28 },
       { 28 },
       { 22, 26 },
       { 29 },
       { 24, 25 },
       { 30 },
       { 30 },
       { 29 },
       { 28 },
       {  },
       {  },
       {  } ];
